p cnf 132 448
3 -1 0
3 2 0
1 -2 -3 0
-7 5 0
-7 -6 0
-5 6 7 0
-10 8 0
-10 -9 0
-8 9 10 0
-7 -10 -11 0
7 10 -11 0
-7 10 11 0
7 -10 11 0
-12 11 0
-12 11 0
-11 12 0
13 4 0
13 12 0
-4 -12 -13 0
-14 15 -16 0
14 -15 -16 0
-14 -15 16 0
14 15 16 0
13 -16 -17 0
-13 16 -17 0
13 16 17 0
-13 -16 17 0
-19 18 0
-19 -1 0
-18 1 19 0
20 12 0
20 -19 0
-12 19 -20 0
-21 -17 0
-21 20 0
17 -20 21 0
24 -23 0
24 -14 0
23 14 -24 0
-25 -22 0
-25 -24 0
22 24 25 0
-21 25 -26 0
21 -25 -26 0
-21 -25 26 0
21 25 26 0
-27 -24 -28 0
27 24 -28 0
-27 24 28 0
27 -24 28 0
29 -4 0
29 28 0
4 -28 -29 0
29 13 -30 0
-29 -13 -30 0
29 -13 30 0
-29 13 30 0
31 26 0
31 -30 0
-26 30 -31 0
7 -2 -32 0
-7 2 -32 0
7 2 32 0
-7 -2 32 0
33 -7 0
33 10 0
7 -10 -33 0
34 -27 0
34 6 0
27 -6 -34 0
-35 33 0
-35 34 0
-33 -34 35 0
36 -35 0
36 14 0
35 -14 -36 0
-36 23 -37 0
36 -23 -37 0
-36 -23 37 0
36 23 37 0
-38 -32 0
-38 37 0
32 -37 38 0
-39 14 0
-39 8 0
-14 -8 39 0
40 -13 0
40 -39 0
13 39 -40 0
-41 -38 0
-41 40 0
38 -40 41 0
-19 5 -42 0
19 -5 -42 0
-19 -5 42 0
19 5 42 0
-15 -42 -43 0
15 42 -43 0
-15 42 43 0
15 -42 43 0
43 4 -44 0
-43 -4 -44 0
43 -4 44 0
-43 4 44 0
-45 -44 0
-45 19 0
44 -19 45 0
-46 -41 0
-46 -45 0
41 45 46 0
47 -2 0
47 5 0
2 -5 -47 0
49 -47 0
49 -48 0
47 48 -49 0
50 -15 0
50 -49 0
15 49 -50 0
-51 -49 0
-51 -50 0
49 50 51 0
-33 -29 -52 0
33 29 -52 0
-33 29 52 0
33 -29 52 0
-6 -52 -53 0
6 52 -53 0
-6 52 53 0
6 -52 53 0
-51 53 -54 0
51 -53 -54 0
-51 -53 54 0
51 53 54 0
55 46 0
55 54 0
-46 -54 -55 0
-56 -31 0
-56 55 0
31 -55 56 0
-57 3 0
-57 56 0
-3 -56 57 0
59 -58 0
59 34 0
58 -34 -59 0
-59 -9 -60 0
59 9 -60 0
-59 9 60 0
59 -9 60 0
61 1 0
61 -15 0
-1 15 -61 0
62 61 0
62 -58 0
-61 58 -62 0
63 -60 0
63 62 0
60 -62 -63 0
64 -9 0
64 63 0
9 -63 -64 0
57 -64 -65 0
-57 64 -65 0
57 64 65 0
-57 -64 65 0
-48 43 -66 0
48 -43 -66 0
-48 -43 66 0
48 43 66 0
-67 28 0
-67 -29 0
-28 29 67 0
-68 -66 0
-68 67 0
66 -67 68 0
-63 -8 -69 0
63 8 -69 0
-63 8 69 0
63 -8 69 0
-47 13 -70 0
47 -13 -70 0
-47 -13 70 0
47 13 70 0
71 69 0
71 -70 0
-69 70 -71 0
-68 -71 -72 0
68 71 -72 0
-68 71 72 0
68 -71 72 0
-14 9 -73 0
14 -9 -73 0
-14 -9 73 0
14 9 73 0
-74 73 0
-74 58 0
-73 -58 74 0
-75 -50 0
-75 -74 0
50 74 75 0
-76 60 0
-76 75 0
-60 -75 76 0
-77 -6 0
-77 23 0
6 -23 77 0
78 -5 0
78 -34 0
5 34 -78 0
-77 -78 -79 0
77 78 -79 0
-77 78 79 0
77 -78 79 0
33 -39 -80 0
-33 39 -80 0
33 39 80 0
-33 -39 80 0
-81 74 0
-81 -80 0
-74 80 81 0
-82 -81 0
-82 74 0
81 -74 82 0
-83 -79 0
-83 82 0
79 -82 83 0
32 39 -84 0
-32 -39 -84 0
32 -39 84 0
-32 39 84 0
85 -84 0
85 -27 0
84 27 -85 0
-86 -73 0
-86 -49 0
73 49 86 0
-85 -86 -87 0
85 86 -87 0
-85 86 87 0
85 -86 87 0
-88 -83 0
-88 87 0
83 -87 88 0
89 76 0
89 -88 0
-76 88 -89 0
90 72 0
90 89 0
-72 -89 -90 0
65 90 -91 0
-65 -90 -91 0
65 -90 91 0
-65 90 91 0
-92 -84 0
-92 -50 0
84 50 92 0
-43 92 -93 0
43 -92 -93 0
-43 -92 93 0
43 92 93 0
-94 60 0
-94 -24 0
-60 24 94 0
-95 -94 0
-95 43 0
94 -43 95 0
93 -95 -96 0
-93 95 -96 0
93 95 96 0
-93 -95 96 0
18 -92 -97 0
-18 92 -97 0
18 92 97 0
-18 -92 97 0
98 96 0
98 -97 0
-96 97 -98 0
99 32 0
99 -80 0
-32 80 -99 0
100 -13 0
100 49 0
13 -49 -100 0
101 -99 0
101 -100 0
99 100 -101 0
103 -37 0
103 102 0
37 -102 -103 0
-103 -1 -104 0
103 1 -104 0
-103 1 104 0
103 -1 104 0
105 9 0
105 104 0
-9 -104 -105 0
-106 -101 0
-106 105 0
101 -105 106 0
-107 98 0
-107 -106 0
-98 106 107 0
-108 47 0
-108 -62 0
-47 62 108 0
-109 -108 0
-109 -18 0
108 18 109 0
14 102 -110 0
-14 -102 -110 0
14 -102 110 0
-14 102 110 0
-63 -110 -111 0
63 110 -111 0
-63 110 111 0
63 -110 111 0
109 111 -112 0
-109 -111 -112 0
109 -111 112 0
-109 111 112 0
-113 107 0
-113 -112 0
-107 112 113 0
-114 42 0
-114 12 0
-42 -12 114 0
114 -23 -115 0
-114 23 -115 0
114 23 115 0
-114 -23 115 0
44 -115 -116 0
-44 115 -116 0
44 115 116 0
-44 -115 116 0
-117 -113 0
-117 -116 0
113 116 117 0
118 91 0
118 -117 0
-91 117 -118 0
-119 -60 0
-119 -7 0
60 7 119 0
115 -14 -120 0
-115 14 -120 0
115 14 120 0
-115 -14 120 0
-7 33 -121 0
7 -33 -121 0
-7 -33 121 0
7 33 121 0
-16 33 -122 0
16 -33 -122 0
-16 -33 122 0
16 33 122 0
121 122 -123 0
-121 -122 -123 0
121 -122 123 0
-121 122 123 0
-124 -6 0
-124 -74 0
6 74 124 0
-125 -34 0
-125 42 0
34 -42 125 0
124 125 -126 0
-124 -125 -126 0
124 -125 126 0
-124 125 126 0
-127 123 0
-127 126 0
-123 -126 127 0
128 120 0
128 127 0
-120 -127 -128 0
129 119 0
129 128 0
-119 -128 -129 0
130 32 0
130 -34 0
-32 34 -130 0
129 130 -131 0
-129 -130 -131 0
129 -130 131 0
-129 130 131 0
132 118 0
132 -131 0
-118 131 -132 0
15 88 37 -54 49 0
23 -43 -26 -121 -100 0
-130 20 -72 -16 32 0
-115 -130 0
-82 -102 57 -63 1 0
-8 44 -55 -86 125 0
58 -22 -81 0
16 -7 -72 128 0
-39 38 31 -113 120 0
-118 7 31 80 0
110 -69 -129 -35 118 0
-21 75 -132 119 -68 78 0
79 97 0
58 94 -24 52 -108 0
-29 11 8 38 50 35 0
124 -111 -61 -14 -57 -25 0
46 70 -16 0
-24 -63 -89 14 0
-122 -5 -17 104 0
-110 -93 82 -115 16 0
97 -28 -124 25 -59 0
12 85 0
12 74 0
-61 -85 28 0
18 -52 126 0
-78 128 0
65 -103 0
48 78 21 -38 29 0
-126 90 116 -18 0
11 82 101 76 0
78 66 -96 0
44 -14 110 71 -75 0
-104 91 -48 -77 -96 0
54 84 -24 -3 33 0
124 -94 0
107 -97 0
-42 -36 -77 56 87 0
-13 -61 -39 0
-24 -16 27 -25 68 0
15 -72 -110 -12 0
-64 87 0
6 -114 -57 78 0
-67 76 117 -28 -16 0
-119 -100 0
48 -58 0
-31 50 79 70 0
-118 64 114 -3 82 0
-127 -82 94 0
-7 -111 48 0
-54 -70 0
101 4 112 53 0
-102 -45 -40 -59 44 97 0
-131 -105 0
111 -79 -97 -58 -32 0
-22 48 51 -31 85 59 0
-73 55 -104 74 -35 0
11 91 -6 54 0
-61 45 -132 -8 0
132 0
